Route 1: 0 74 51 68 43 81 96 0
Route 2: 0 66 2 61 75 85 49 8 0
Route 3: 0 5 47 22 23 60 31 44 4 7 69 0
Route 4: 0 76 30 39 48 33 53 88 54 70 83 0
Route 5: 0 46 67 92 41 45 99 26 97 64 10 32 1 0
Route 6: 0 34 24 35 55 9 27 86 89 0
Route 7: 0 95 57 63 6 29 94 78 28 71 62 18 0
Route 8: 0 13 72 79 80 77 37 19 91 84 56 0
Route 9: 0 82 42 20 3 98 16 52 73 0
Route 10: 0 50 21 90 40 14 59 36 65 100 15 11 87 0
Route 11: 0 25 12 58 17 38 93 0
